
===== New CPLEX run =====
Instance: /home/yorig/tuner/mpils-tests/instances/miplib/medium-1/neos-1456979.mps
Config: /scratch/yorig/mpils-results-grid-ticks-10000-2proc-no-mip-start/medium-1/2proc/seed-4/8_neos-1456979_seed-4_20260501_231809/iterated_local_search/run_2_worker_1/ils_config_17514050945686148453.prm
========================

Selected objective sense:  MINIMIZE
Selected objective  name:  R6771
Selected RHS        name:  B
Selected bound      name:  BOUND
Version identifier: 22.1.2.0 | 2024-11-26 | 0edbb82fd
CPXPARAM_Threads                                 8
CPXPARAM_Parallel                                1
CPXPARAM_MIP_Cuts_Cliques                        1
CPXPARAM_MIP_Cuts_FlowCovers                     -1
CPXPARAM_MIP_Cuts_Implied                        1
CPXPARAM_MIP_Cuts_GUBCovers                      1
CPXPARAM_MIP_Limits_GomoryCand                   10
CPXPARAM_MIP_Cuts_Gomory                         1
CPXPARAM_MIP_Cuts_PathCut                        -1
CPXPARAM_MIP_Cuts_MIRCut                         2
CPXPARAM_MIP_Cuts_Disjunctive                    -1
CPXPARAM_Emphasis_MIP                            1
CPXPARAM_DetTimeLimit                            10000
Tried aggregator 1 time.
MIP Presolve eliminated 175 rows and 10 columns.
MIP Presolve modified 4950 coefficients.
Reduced MIP has 6595 rows, 4595 columns, and 35740 nonzeros.
Reduced MIP has 4245 binaries, 175 generals, 0 SOSs, and 0 indicators.
Presolve time = 0.01 sec. (15.92 ticks)
Probing time = 0.01 sec. (5.74 ticks)
Tried aggregator 1 time.
Detecting symmetries...
MIP Presolve modified 90 coefficients.
Reduced MIP has 6595 rows, 4595 columns, and 35740 nonzeros.
Reduced MIP has 4245 binaries, 175 generals, 0 SOSs, and 0 indicators.
Presolve time = 0.02 sec. (27.10 ticks)
Probing time = 0.00 sec. (5.37 ticks)
Clique table members: 20433.
MIP emphasis: integer feasibility.
MIP search method: dynamic search.
Parallel mode: deterministic, using up to 8 threads.
Root relaxation solution time = 0.04 sec. (38.64 ticks)

        Nodes                                         Cuts/
   Node  Left     Objective  IInf  Best Integer    Best Bound    ItCnt     Gap

      0     0      154.0000   120                    154.0000      736         
      0     0      154.0000   117                   Cuts: 116      876         
      0     0      154.0000   135                   Cuts: 388     1139         
      0     0      154.0000   125                    Cuts: 98     1327         
      0     2      154.0000    92                    154.0000     1327         
Elapsed time = 1.09 sec. (674.69 ticks, tree = 0.02 MB, solutions = 0)
     67    48      167.1384    77                    155.1111     6640         
    236   183      183.3889    53                    155.1111    15915         
*   371   291      integral     0      209.0000      155.1111    21417   25.78%
*   404   289      integral     0      208.0000      155.1111    21937   25.43%
    426   304      170.6744   118      208.0000      155.1111    22954   25.43%
    585   386      167.0000    48      208.0000      157.0000    31468   24.52%
    763   519      168.1679   132      208.0000      157.0000    38817   24.52%
    963   646      184.7300    65      208.0000      157.0000    44229   24.52%
   1219   881      168.0000    63      208.0000      157.0000    53163   24.52%
   1463  1169      186.1427   106      208.0000      157.0000    65200   24.52%
   1730  1338      187.3488   119      208.0000      157.0000    71197   24.52%

Performing restart 1

Repeating presolve.
Tried aggregator 1 time.
MIP Presolve eliminated 1 rows and 0 columns.
MIP Presolve modified 4723 coefficients.
Reduced MIP has 6594 rows, 4595 columns, and 34313 nonzeros.
Reduced MIP has 4245 binaries, 175 generals, 0 SOSs, and 0 indicators.
Presolve time = 0.02 sec. (33.94 ticks)
Tried aggregator 1 time.
Reduced MIP has 6594 rows, 4595 columns, and 34313 nonzeros.
Reduced MIP has 4245 binaries, 175 generals, 0 SOSs, and 0 indicators.
Presolve time = 0.02 sec. (25.15 ticks)
Represolve time = 0.19 sec. (103.74 ticks)
*  1743+    0                          201.0000      157.0000            21.89%
   1743     0      155.0000   162      201.0000      Cuts: 36    78617   21.89%
   1743     0      155.9211   175      201.0000     Cuts: 101    78900   21.89%
   1743     0      156.5000   156      201.0000      Cuts: 45    79003   21.89%
   1743     2      156.5000   124      201.0000      157.0000    79003   21.89%
Elapsed time = 5.25 sec. (4259.63 ticks, tree = 0.02 MB, solutions = 3)
   1861    98      175.0000    75      201.0000      158.5000    93068   21.14%
   2183   350      187.9976    30      201.0000      158.5000   111391   21.14%
   2731   822      187.5000   139      201.0000      158.5000   136632   21.14%
   3487  1433      186.2903   117      201.0000      158.5000   162890   21.14%
   4036  1808      184.2420    62      201.0000      158.5000   180185   21.14%
   4610  2220      196.5962    93      201.0000      158.5000   201816   21.14%

GUB cover cuts applied:  6
Clique cuts applied:  2
Cover cuts applied:  9
Implied bound cuts applied:  200
Mixed integer rounding cuts applied:  244
Zero-half cuts applied:  50
Multi commodity flow cuts applied:  3
Gomory fractional cuts applied:  19

Root node processing (before b&c):
  Real time             =    0.99 sec. (672.29 ticks)
Parallel b&c, 8 threads:
  Real time             =   11.04 sec. (9331.95 ticks)
  Sync time (average)   =    3.60 sec.
  Wait time (average)   =    0.00 sec.
                          ------------
Total (root+branch&cut) =   12.03 sec. (10004.24 ticks)
Gap: 21.14%
Upper bound: 201
Lower bound: 158.5
End of CPLEX run. Time: 12.0357 seconds

===== New CPLEX run =====
Instance: /home/yorig/tuner/mpils-tests/instances/miplib/medium-1/neos-1456979.mps
Config: /scratch/yorig/mpils-results-grid-ticks-10000-2proc-no-mip-start/medium-1/2proc/seed-4/8_neos-1456979_seed-4_20260501_231809/iterated_local_search/run_2_worker_1/ils_config_577999152070366662.prm
========================

Selected objective sense:  MINIMIZE
Selected objective  name:  R6771
Selected RHS        name:  B
Selected bound      name:  BOUND
Version identifier: 22.1.2.0 | 2024-11-26 | 0edbb82fd
CPXPARAM_Threads                                 8
CPXPARAM_Parallel                                1
CPXPARAM_MIP_Cuts_Cliques                        1
CPXPARAM_MIP_Cuts_FlowCovers                     -1
CPXPARAM_MIP_Cuts_Implied                        1
CPXPARAM_MIP_Cuts_GUBCovers                      1
CPXPARAM_MIP_Limits_GomoryCand                   150
CPXPARAM_MIP_Cuts_Gomory                         1
CPXPARAM_MIP_Cuts_PathCut                        -1
CPXPARAM_MIP_Cuts_MIRCut                         2
CPXPARAM_MIP_Cuts_Disjunctive                    -1
CPXPARAM_Emphasis_MIP                            1
CPXPARAM_DetTimeLimit                            10000
Tried aggregator 1 time.
MIP Presolve eliminated 175 rows and 10 columns.
MIP Presolve modified 4950 coefficients.
Reduced MIP has 6595 rows, 4595 columns, and 35740 nonzeros.
Reduced MIP has 4245 binaries, 175 generals, 0 SOSs, and 0 indicators.
Presolve time = 0.01 sec. (15.92 ticks)
Probing time = 0.01 sec. (5.74 ticks)
Tried aggregator 1 time.
Detecting symmetries...
MIP Presolve modified 90 coefficients.
Reduced MIP has 6595 rows, 4595 columns, and 35740 nonzeros.
Reduced MIP has 4245 binaries, 175 generals, 0 SOSs, and 0 indicators.
Presolve time = 0.02 sec. (27.10 ticks)
Probing time = 0.01 sec. (5.37 ticks)
Clique table members: 20433.
MIP emphasis: integer feasibility.
MIP search method: dynamic search.
Parallel mode: deterministic, using up to 8 threads.
Root relaxation solution time = 0.03 sec. (38.64 ticks)

        Nodes                                         Cuts/
   Node  Left     Objective  IInf  Best Integer    Best Bound    ItCnt     Gap

      0     0      154.0000   120                    154.0000      736         
      0     0      154.0000   121                   Cuts: 117      876         
      0     0      154.0000   132                   Cuts: 139     1123         
      0     2      154.0000    62                    154.0000     1123         
Elapsed time = 0.99 sec. (630.12 ticks, tree = 0.02 MB, solutions = 0)
     70    60      163.3069    79                    155.1111     8176         
*   196   169      integral     0      193.0000      155.1111    17963   19.63%
    200   164      170.6529    51      193.0000      155.1111    17801   19.63%
    428   329      186.5264    69      193.0000      155.1111    27340   19.63%
    518   430      163.3799   115      193.0000      155.1111    34540   19.63%
    770   601      190.5000    64      193.0000      157.0000    42818   18.65%
   1085   866      180.0850    82      193.0000      157.0000    54127   18.65%
   1382  1030      174.8541   126      193.0000      157.0000    60878   18.65%
   1594  1323      186.5000    51      193.0000      157.0000    73560   18.65%
   1851  1444      178.5344    93      193.0000      157.0000    78618   18.65%
   3107  2481      191.0000    12      193.0000      157.0000   118973   18.65%
Elapsed time = 4.79 sec. (3738.45 ticks, tree = 124.70 MB, solutions = 1)

Performing restart 1

Repeating presolve.
Tried aggregator 1 time.
MIP Presolve eliminated 9 rows and 8 columns.
MIP Presolve modified 4723 coefficients.
Reduced MIP has 6586 rows, 4587 columns, and 34257 nonzeros.
Reduced MIP has 4237 binaries, 175 generals, 0 SOSs, and 0 indicators.
Presolve time = 0.02 sec. (33.99 ticks)
Tried aggregator 1 time.
Reduced MIP has 6586 rows, 4587 columns, and 34257 nonzeros.
Reduced MIP has 4237 binaries, 175 generals, 0 SOSs, and 0 indicators.
Presolve time = 0.02 sec. (25.07 ticks)
Represolve time = 0.10 sec. (104.63 ticks)
   3361     0      154.3158   128      193.0000      Cuts: 64   136416   18.65%
   3361     0      155.9344   184      193.0000     Cuts: 116   136678   18.65%
   3361     0      156.5161   149      193.0000      Cuts: 98   136779   18.65%
   3361     2      156.5161   149      193.0000      157.0000   136779   18.65%
   3555   124      188.0307    37      193.0000      158.2500   148226   18.01%
*  3696   273      integral     0      190.0000      158.2500   156969   16.71%
   4015   375      178.6683   103      190.0000      158.2500   166086   16.71%
*  4311   707      integral     0      188.0000      158.2500   182147   15.82%
   4605   789        cutoff            188.0000      158.2500   188817   15.82%
   5273  1335        cutoff            188.0000      158.2500   218010   15.82%

GUB cover cuts applied:  10
Clique cuts applied:  1
Cover cuts applied:  8
Implied bound cuts applied:  137
Mixed integer rounding cuts applied:  268
Zero-half cuts applied:  39
Gomory fractional cuts applied:  16

Root node processing (before b&c):
  Real time             =    0.79 sec. (627.85 ticks)
Parallel b&c, 8 threads:
  Real time             =   11.30 sec. (9376.09 ticks)
  Sync time (average)   =    3.60 sec.
  Wait time (average)   =    0.00 sec.
                          ------------
Total (root+branch&cut) =   12.09 sec. (10003.94 ticks)
Gap: 15.82%
Upper bound: 188
Lower bound: 158.25
End of CPLEX run. Time: 12.0923 seconds

===== New CPLEX run =====
Instance: /home/yorig/tuner/mpils-tests/instances/miplib/medium-1/neos-1456979.mps
Config: /scratch/yorig/mpils-results-grid-ticks-10000-2proc-no-mip-start/medium-1/2proc/seed-4/8_neos-1456979_seed-4_20260501_231809/iterated_local_search/run_2_worker_1/ils_config_7632777321881233189.prm
========================

Selected objective sense:  MINIMIZE
Selected objective  name:  R6771
Selected RHS        name:  B
Selected bound      name:  BOUND
Version identifier: 22.1.2.0 | 2024-11-26 | 0edbb82fd
CPXPARAM_Threads                                 8
CPXPARAM_Parallel                                1
CPXPARAM_MIP_Cuts_Cliques                        1
CPXPARAM_MIP_Cuts_FlowCovers                     -1
CPXPARAM_MIP_Cuts_Implied                        1
CPXPARAM_MIP_Cuts_GUBCovers                      1
CPXPARAM_MIP_Limits_GomoryCand                   25
CPXPARAM_MIP_Cuts_Gomory                         1
CPXPARAM_MIP_Cuts_PathCut                        -1
CPXPARAM_MIP_Cuts_MIRCut                         2
CPXPARAM_MIP_Cuts_Disjunctive                    -1
CPXPARAM_Emphasis_MIP                            1
CPXPARAM_DetTimeLimit                            10000
Tried aggregator 1 time.
MIP Presolve eliminated 175 rows and 10 columns.
MIP Presolve modified 4950 coefficients.
Reduced MIP has 6595 rows, 4595 columns, and 35740 nonzeros.
Reduced MIP has 4245 binaries, 175 generals, 0 SOSs, and 0 indicators.
Presolve time = 0.01 sec. (15.92 ticks)
Probing time = 0.01 sec. (5.74 ticks)
Tried aggregator 1 time.
Detecting symmetries...
MIP Presolve modified 90 coefficients.
Reduced MIP has 6595 rows, 4595 columns, and 35740 nonzeros.
Reduced MIP has 4245 binaries, 175 generals, 0 SOSs, and 0 indicators.
Presolve time = 0.02 sec. (27.10 ticks)
Probing time = 0.15 sec. (5.37 ticks)
Clique table members: 20433.
MIP emphasis: integer feasibility.
MIP search method: dynamic search.
Parallel mode: deterministic, using up to 8 threads.
Root relaxation solution time = 0.05 sec. (38.64 ticks)

        Nodes                                         Cuts/
   Node  Left     Objective  IInf  Best Integer    Best Bound    ItCnt     Gap

      0     0      154.0000   120                    154.0000      736         
      0     0      154.0000   117                   Cuts: 116      876         
      0     0      154.0000   120                   Cuts: 392     1162         
      0     0      154.0000   150                    Cuts: 87     1346         
      0     2      154.0000   108                    154.0000     1346         
Elapsed time = 1.25 sec. (709.28 ticks, tree = 0.02 MB, solutions = 0)
     59    53      163.6737   105                    154.3061     6035         
    175   156      164.1983    72                    154.3061    17110         
    369   285      212.2740    47                    154.3061    24179         
    562   453      238.4819    51                    154.3061    33390         
*   718   514      integral     0      202.0000      154.3061    36828   23.61%
    823   574      206.0329    79      202.0000      154.3061    39596   23.61%
   1099   637      184.0231   129      202.0000      154.3061    49488   23.61%
   1314   901      173.4828   137      202.0000      154.3061    60357   23.61%
   1496  1117      188.2395    63      202.0000      154.3061    69146   23.61%
   1780  1252      178.0000    83      202.0000      154.3061    75293   23.61%
*  2431  1919      integral     0      200.0000      154.3061    99639   22.85%
   2776  2166      193.8019   105      200.0000      154.3061   112297   22.85%
Elapsed time = 4.90 sec. (3817.44 ticks, tree = 107.46 MB, solutions = 2)

Performing restart 1

Repeating presolve.
Tried aggregator 1 time.
MIP Presolve eliminated 1 rows and 0 columns.
MIP Presolve modified 4723 coefficients.
Reduced MIP has 6594 rows, 4595 columns, and 34313 nonzeros.
Reduced MIP has 4245 binaries, 175 generals, 0 SOSs, and 0 indicators.
Presolve time = 0.02 sec. (33.94 ticks)
Tried aggregator 1 time.
Reduced MIP has 6594 rows, 4595 columns, and 34313 nonzeros.
Reduced MIP has 4245 binaries, 175 generals, 0 SOSs, and 0 indicators.
Presolve time = 0.02 sec. (25.15 ticks)
Represolve time = 0.09 sec. (104.39 ticks)
   3384     0      154.5263   129      200.0000      Cuts: 23   136703   22.74%
   3384     0      158.4742   236      200.0000      Cuts: 70   137004   20.76%
   3384     0      160.0833   220      200.0000     Cuts: 101   137088   19.96%
   3384     2      160.0833   191      200.0000      160.0833   137088   19.96%
*  3394+    6                          198.0000      160.5833            18.90%
   3499    91      172.4579   135      198.0000      161.6885   151570   18.34%
   3730   253      168.1265   140      198.0000      161.9167   172674   18.22%
   4207   546      174.2205   142      198.0000      161.9167   193528   18.22%
   4708   884      188.5000    66      198.0000      161.9167   213835   18.22%

GUB cover cuts applied:  3
Clique cuts applied:  2
Cover cuts applied:  8
Implied bound cuts applied:  190
Mixed integer rounding cuts applied:  178
Zero-half cuts applied:  64
Multi commodity flow cuts applied:  3
Gomory fractional cuts applied:  24

Root node processing (before b&c):
  Real time             =    1.15 sec. (706.91 ticks)
Parallel b&c, 8 threads:
  Real time             =   10.87 sec. (9297.08 ticks)
  Sync time (average)   =    3.67 sec.
  Wait time (average)   =    0.00 sec.
                          ------------
Total (root+branch&cut) =   12.01 sec. (10003.99 ticks)
Gap: 18.22%
Upper bound: 198
Lower bound: 161.917
End of CPLEX run. Time: 12.014 seconds

===== New CPLEX run =====
Instance: /home/yorig/tuner/mpils-tests/instances/miplib/medium-1/neos-1456979.mps
Config: /scratch/yorig/mpils-results-grid-ticks-10000-2proc-no-mip-start/medium-1/2proc/seed-4/8_neos-1456979_seed-4_20260501_231809/iterated_local_search/run_2_worker_1/ils_config_228742448106010452.prm
========================

Selected objective sense:  MINIMIZE
Selected objective  name:  R6771
Selected RHS        name:  B
Selected bound      name:  BOUND
Version identifier: 22.1.2.0 | 2024-11-26 | 0edbb82fd
CPXPARAM_Threads                                 8
CPXPARAM_Parallel                                1
CPXPARAM_MIP_Cuts_Cliques                        1
CPXPARAM_MIP_Cuts_FlowCovers                     -1
CPXPARAM_MIP_Cuts_Implied                        1
CPXPARAM_MIP_Cuts_GUBCovers                      1
CPXPARAM_MIP_Limits_GomoryCand                   150
CPXPARAM_MIP_Cuts_Gomory                         1
CPXPARAM_MIP_Cuts_PathCut                        -1
CPXPARAM_MIP_Cuts_MIRCut                         2
CPXPARAM_Emphasis_MIP                            1
CPXPARAM_DetTimeLimit                            10000
Tried aggregator 1 time.
MIP Presolve eliminated 175 rows and 10 columns.
MIP Presolve modified 4950 coefficients.
Reduced MIP has 6595 rows, 4595 columns, and 35740 nonzeros.
Reduced MIP has 4245 binaries, 175 generals, 0 SOSs, and 0 indicators.
Presolve time = 0.01 sec. (15.92 ticks)
Probing time = 0.01 sec. (5.74 ticks)
Tried aggregator 1 time.
Detecting symmetries...
MIP Presolve modified 90 coefficients.
Reduced MIP has 6595 rows, 4595 columns, and 35740 nonzeros.
Reduced MIP has 4245 binaries, 175 generals, 0 SOSs, and 0 indicators.
Presolve time = 0.02 sec. (27.10 ticks)
Probing time = 0.01 sec. (5.37 ticks)
Clique table members: 20433.
MIP emphasis: integer feasibility.
MIP search method: dynamic search.
Parallel mode: deterministic, using up to 8 threads.
Root relaxation solution time = 0.04 sec. (38.64 ticks)

        Nodes                                         Cuts/
   Node  Left     Objective  IInf  Best Integer    Best Bound    ItCnt     Gap

      0     0      154.0000   120                    154.0000      736         
      0     0      154.0000   121                   Cuts: 117      876         
      0     0      154.0000   132                   Cuts: 139     1123         
      0     2      154.0000    62                    154.0000     1123         
Elapsed time = 0.85 sec. (630.12 ticks, tree = 0.02 MB, solutions = 0)
     70    60      163.3069    79                    155.1111     8176         
*   196   169      integral     0      193.0000      155.1111    17963   19.63%
    200   164      170.6529    51      193.0000      155.1111    17801   19.63%
    428   329      186.5264    69      193.0000      155.1111    27340   19.63%
    518   430      163.3799   115      193.0000      155.1111    34540   19.63%
    770   601      190.5000    64      193.0000      157.0000    42818   18.65%
   1085   866      180.0850    82      193.0000      157.0000    54127   18.65%
   1382  1030      174.8541   126      193.0000      157.0000    60878   18.65%
   1594  1323      186.5000    51      193.0000      157.0000    73560   18.65%
   1851  1444      178.5344    93      193.0000      157.0000    78618   18.65%
   3107  2481      191.0000    12      193.0000      157.0000   118973   18.65%
Elapsed time = 5.02 sec. (3738.45 ticks, tree = 124.70 MB, solutions = 1)

Performing restart 1

Repeating presolve.
Tried aggregator 1 time.
MIP Presolve eliminated 9 rows and 8 columns.
MIP Presolve modified 4723 coefficients.
Reduced MIP has 6586 rows, 4587 columns, and 34257 nonzeros.
Reduced MIP has 4237 binaries, 175 generals, 0 SOSs, and 0 indicators.
Presolve time = 0.02 sec. (33.99 ticks)
Tried aggregator 1 time.
Reduced MIP has 6586 rows, 4587 columns, and 34257 nonzeros.
Reduced MIP has 4237 binaries, 175 generals, 0 SOSs, and 0 indicators.
Presolve time = 0.02 sec. (25.07 ticks)
Represolve time = 0.09 sec. (104.63 ticks)
   3361     0      154.3158   128      193.0000      Cuts: 64   136416   18.65%
   3361     0      155.9344   184      193.0000     Cuts: 116   136678   18.65%
   3361     0      156.5161   149      193.0000      Cuts: 98   136779   18.65%
   3361     2      156.5161   149      193.0000      157.0000   136779   18.65%
   3555   124      188.0307    37      193.0000      158.2500   148226   18.01%
*  3696   273      integral     0      190.0000      158.2500   156969   16.71%
   4015   375      178.6683   103      190.0000      158.2500   166086   16.71%
*  4311   707      integral     0      188.0000      158.2500   182147   15.82%
   4605   789        cutoff            188.0000      158.2500   188817   15.82%
   5273  1335        cutoff            188.0000      158.2500   218010   15.82%

GUB cover cuts applied:  10
Clique cuts applied:  1
Cover cuts applied:  8
Implied bound cuts applied:  137
Mixed integer rounding cuts applied:  268
Zero-half cuts applied:  39
Gomory fractional cuts applied:  16

Root node processing (before b&c):
  Real time             =    0.83 sec. (627.85 ticks)
Parallel b&c, 8 threads:
  Real time             =   11.62 sec. (9376.09 ticks)
  Sync time (average)   =    3.72 sec.
  Wait time (average)   =    0.00 sec.
                          ------------
Total (root+branch&cut) =   12.45 sec. (10003.94 ticks)
Gap: 15.82%
Upper bound: 188
Lower bound: 158.25
End of CPLEX run. Time: 12.4509 seconds

===== New CPLEX run =====
Instance: /home/yorig/tuner/mpils-tests/instances/miplib/medium-1/neos-1456979.mps
Config: /scratch/yorig/mpils-results-grid-ticks-10000-2proc-no-mip-start/medium-1/2proc/seed-4/8_neos-1456979_seed-4_20260501_231809/iterated_local_search/run_2_worker_1/ils_config_6551486161990885557.prm
========================

Selected objective sense:  MINIMIZE
Selected objective  name:  R6771
Selected RHS        name:  B
Selected bound      name:  BOUND
Version identifier: 22.1.2.0 | 2024-11-26 | 0edbb82fd
CPXPARAM_Threads                                 8
CPXPARAM_Parallel                                1
CPXPARAM_MIP_Cuts_Cliques                        1
CPXPARAM_MIP_Cuts_FlowCovers                     -1
CPXPARAM_MIP_Cuts_Implied                        1
CPXPARAM_MIP_Cuts_GUBCovers                      2
CPXPARAM_MIP_Limits_GomoryCand                   150
CPXPARAM_MIP_Cuts_Gomory                         1
CPXPARAM_MIP_Cuts_PathCut                        -1
CPXPARAM_MIP_Cuts_MIRCut                         2
CPXPARAM_MIP_Cuts_Disjunctive                    -1
CPXPARAM_Emphasis_MIP                            1
CPXPARAM_DetTimeLimit                            10000
Tried aggregator 1 time.
MIP Presolve eliminated 175 rows and 10 columns.
MIP Presolve modified 4950 coefficients.
Reduced MIP has 6595 rows, 4595 columns, and 35740 nonzeros.
Reduced MIP has 4245 binaries, 175 generals, 0 SOSs, and 0 indicators.
Presolve time = 0.01 sec. (15.92 ticks)
Probing time = 0.09 sec. (5.74 ticks)
Tried aggregator 1 time.
Detecting symmetries...
MIP Presolve modified 90 coefficients.
Reduced MIP has 6595 rows, 4595 columns, and 35740 nonzeros.
Reduced MIP has 4245 binaries, 175 generals, 0 SOSs, and 0 indicators.
Presolve time = 0.02 sec. (27.10 ticks)
Probing time = 0.16 sec. (5.37 ticks)
Clique table members: 20433.
MIP emphasis: integer feasibility.
MIP search method: dynamic search.
Parallel mode: deterministic, using up to 8 threads.
Root relaxation solution time = 0.06 sec. (38.64 ticks)

        Nodes                                         Cuts/
   Node  Left     Objective  IInf  Best Integer    Best Bound    ItCnt     Gap

      0     0      154.0000   120                    154.0000      736         
      0     0      154.0000   121                   Cuts: 117      876         
      0     0      154.0000   132                   Cuts: 139     1123         
      0     2      154.0000    62                    154.0000     1123         
Elapsed time = 0.97 sec. (630.12 ticks, tree = 0.02 MB, solutions = 0)
     70    60      163.3069    79                    155.1111     8176         
*   196   169      integral     0      193.0000      155.1111    17963   19.63%
    200   164      170.6529    51      193.0000      155.1111    17801   19.63%
    428   329      186.5264    69      193.0000      155.1111    27340   19.63%
    518   430      163.3799   115      193.0000      155.1111    34540   19.63%
    770   601      190.5000    64      193.0000      157.0000    42818   18.65%
   1085   866      180.0850    82      193.0000      157.0000    54127   18.65%
   1382  1030      174.8541   126      193.0000      157.0000    60878   18.65%
   1594  1323      186.5000    51      193.0000      157.0000    73560   18.65%
   1851  1444      178.5344    93      193.0000      157.0000    78618   18.65%
   3107  2481      191.0000    12      193.0000      157.0000   118973   18.65%
Elapsed time = 5.18 sec. (3738.45 ticks, tree = 124.70 MB, solutions = 1)

Performing restart 1

Repeating presolve.
Tried aggregator 1 time.
MIP Presolve eliminated 9 rows and 8 columns.
MIP Presolve modified 4723 coefficients.
Reduced MIP has 6586 rows, 4587 columns, and 34257 nonzeros.
Reduced MIP has 4237 binaries, 175 generals, 0 SOSs, and 0 indicators.
Presolve time = 0.03 sec. (33.99 ticks)
Tried aggregator 1 time.
Reduced MIP has 6586 rows, 4587 columns, and 34257 nonzeros.
Reduced MIP has 4237 binaries, 175 generals, 0 SOSs, and 0 indicators.
Presolve time = 0.02 sec. (25.07 ticks)
Represolve time = 0.23 sec. (104.63 ticks)
   3361     0      154.3158   128      193.0000      Cuts: 64   136416   18.65%
   3361     0      155.9344   184      193.0000     Cuts: 116   136678   18.65%
   3361     0      156.5161   149      193.0000      Cuts: 98   136779   18.65%
   3361     2      156.5161   149      193.0000      157.0000   136779   18.65%
   3559   149      174.4874   118      193.0000      158.2500   149911   18.01%
*  3721   265      integral     0      191.0000      158.2500   158387   17.15%
   4052   502      183.5000    94      191.0000      158.2500   174373   17.15%
   4571   842      176.0000    62      191.0000      158.2500   192777   17.15%
   5157  1266      190.0000    16      191.0000      158.2500   217412   17.15%

GUB cover cuts applied:  7
Clique cuts applied:  1
Cover cuts applied:  8
Implied bound cuts applied:  137
Mixed integer rounding cuts applied:  227
Zero-half cuts applied:  41
Gomory fractional cuts applied:  15

Root node processing (before b&c):
  Real time             =    0.93 sec. (627.82 ticks)
Parallel b&c, 8 threads:
  Real time             =   11.33 sec. (9376.16 ticks)
  Sync time (average)   =    3.85 sec.
  Wait time (average)   =    0.00 sec.
                          ------------
Total (root+branch&cut) =   12.26 sec. (10003.98 ticks)
Gap: 17.15%
Upper bound: 191
Lower bound: 158.25
End of CPLEX run. Time: 12.2603 seconds

===== New CPLEX run =====
Instance: /home/yorig/tuner/mpils-tests/instances/miplib/medium-1/neos-1456979.mps
Config: /scratch/yorig/mpils-results-grid-ticks-10000-2proc-no-mip-start/medium-1/2proc/seed-4/8_neos-1456979_seed-4_20260501_231809/iterated_local_search/run_2_worker_1/ils_config_17063300257651723066.prm
========================

Selected objective sense:  MINIMIZE
Selected objective  name:  R6771
Selected RHS        name:  B
Selected bound      name:  BOUND
Version identifier: 22.1.2.0 | 2024-11-26 | 0edbb82fd
CPXPARAM_Threads                                 8
CPXPARAM_Parallel                                1
CPXPARAM_MIP_Cuts_Cliques                        1
CPXPARAM_MIP_Cuts_Implied                        1
CPXPARAM_MIP_Cuts_GUBCovers                      1
CPXPARAM_MIP_Limits_GomoryCand                   150
CPXPARAM_MIP_Cuts_Gomory                         1
CPXPARAM_MIP_Cuts_PathCut                        -1
CPXPARAM_MIP_Cuts_MIRCut                         2
CPXPARAM_MIP_Cuts_Disjunctive                    -1
CPXPARAM_Emphasis_MIP                            1
CPXPARAM_DetTimeLimit                            10000
Tried aggregator 1 time.
MIP Presolve eliminated 175 rows and 10 columns.
MIP Presolve modified 4950 coefficients.
Reduced MIP has 6595 rows, 4595 columns, and 35740 nonzeros.
Reduced MIP has 4245 binaries, 175 generals, 0 SOSs, and 0 indicators.
Presolve time = 0.01 sec. (15.92 ticks)
Probing time = 0.01 sec. (5.74 ticks)
Tried aggregator 1 time.
Detecting symmetries...
MIP Presolve modified 90 coefficients.
Reduced MIP has 6595 rows, 4595 columns, and 35740 nonzeros.
Reduced MIP has 4245 binaries, 175 generals, 0 SOSs, and 0 indicators.
Presolve time = 0.02 sec. (27.10 ticks)
Probing time = 0.00 sec. (5.37 ticks)
Clique table members: 20433.
MIP emphasis: integer feasibility.
MIP search method: dynamic search.
Parallel mode: deterministic, using up to 8 threads.
Root relaxation solution time = 0.04 sec. (38.64 ticks)

        Nodes                                         Cuts/
   Node  Left     Objective  IInf  Best Integer    Best Bound    ItCnt     Gap

      0     0      154.0000   120                    154.0000      736         
      0     0      154.0000   121                   Cuts: 117      876         
      0     0      154.0000   132                   Cuts: 139     1123         
      0     2      154.0000    62                    154.0000     1123         
Elapsed time = 0.95 sec. (630.12 ticks, tree = 0.02 MB, solutions = 0)
     70    60      163.3069    79                    155.1111     8176         
*   196   169      integral     0      193.0000      155.1111    17963   19.63%
    200   164      170.6529    51      193.0000      155.1111    17801   19.63%
    428   329      186.5264    69      193.0000      155.1111    27340   19.63%
    518   430      163.3799   115      193.0000      155.1111    34540   19.63%
    770   601      190.5000    64      193.0000      157.0000    42818   18.65%
   1085   866      180.0850    82      193.0000      157.0000    54127   18.65%
   1382  1030      174.8541   126      193.0000      157.0000    60878   18.65%
   1594  1323      186.5000    51      193.0000      157.0000    73560   18.65%
   1851  1444      178.5344    93      193.0000      157.0000    78618   18.65%
   3107  2481      191.0000    12      193.0000      157.0000   118973   18.65%
Elapsed time = 4.93 sec. (3738.45 ticks, tree = 124.70 MB, solutions = 1)

Performing restart 1

Repeating presolve.
Tried aggregator 1 time.
MIP Presolve eliminated 9 rows and 8 columns.
MIP Presolve modified 4723 coefficients.
Reduced MIP has 6586 rows, 4587 columns, and 34257 nonzeros.
Reduced MIP has 4237 binaries, 175 generals, 0 SOSs, and 0 indicators.
Presolve time = 0.02 sec. (33.99 ticks)
Tried aggregator 1 time.
Reduced MIP has 6586 rows, 4587 columns, and 34257 nonzeros.
Reduced MIP has 4237 binaries, 175 generals, 0 SOSs, and 0 indicators.
Presolve time = 0.02 sec. (25.07 ticks)
Represolve time = 0.12 sec. (104.63 ticks)
   3361     0      154.5263   176      193.0000      Cuts: 66   136501   18.65%
   3361     0      157.2977   209      193.0000     Cuts: 149   136857   18.50%
   3361     0      158.2500   172      193.0000     Cuts: 149   136974   18.01%
   3361     2      158.2500   162      193.0000      158.2500   136974   18.01%
   3470    88      164.5824   152      193.0000      158.7500   149547   17.75%
   3855   347      188.9957    90      193.0000      158.7500   167274   17.75%
   4267   639      173.9268   102      193.0000      158.7500   187683   17.75%
   4935  1185      183.1250   101      193.0000      158.7500   215458   17.75%

GUB cover cuts applied:  14
Clique cuts applied:  1
Cover cuts applied:  11
Implied bound cuts applied:  139
Flow cuts applied:  2
Mixed integer rounding cuts applied:  294
Zero-half cuts applied:  37
Gomory fractional cuts applied:  25

Root node processing (before b&c):
  Real time             =    0.87 sec. (627.75 ticks)
Parallel b&c, 8 threads:
  Real time             =   11.09 sec. (9378.22 ticks)
  Sync time (average)   =    3.40 sec.
  Wait time (average)   =    0.00 sec.
                          ------------
Total (root+branch&cut) =   11.95 sec. (10005.98 ticks)
Gap: 17.75%
Upper bound: 193
Lower bound: 158.75
End of CPLEX run. Time: 11.9555 seconds
